! RI-MP2 RIJK def2-TZVP def2-TZVP/C def2-TZVP/JK TIGHTSCF
% maxcore 2000
% mp2 density relaxed end
*xyz 0 1
 C        0.9132540000     0.0515330000     0.0408780000 
 C        2.3632300000     0.0515100000     0.0408750000 
 N        3.5122380000     0.0514990000     0.0409000000 
 H        0.5393490000    -0.3335060000    -0.9087910000 
 H        0.5393340000     1.0664700000     0.1823210000 
 H        0.5393040000    -0.5784060000     0.8491160000 
*
