! RI-MP2 RIJK def2-TZVP def2-TZVP/C def2-TZVP/JK TIGHTSCF
% maxcore 2000
% mp2 density relaxed end
*xyz 0 1
 C        0.9903750000    -0.0630000000     0.0776000000 
 C        2.1950460000    -0.0630000000     0.0776000000 
 C        3.5591540000    -0.0630000000     0.0776000000 
 C        4.7638250000    -0.0630000000     0.0776000000 
 H       -0.0740650000    -0.0630000000     0.0776000000 
 H        5.8282650000    -0.0630000000     0.0776000000 
*
