! RI-MP2 RIJK def2-TZVP def2-TZVP/C def2-TZVP/JK TIGHTSCF
% maxcore 2000
% mp2 density relaxed end
*xyz 0 1
 C        0.9116030000     0.0878800000    -0.0227060000 
 C        2.2384160000     0.0068150000    -0.0146200000 
 C        2.9759960000    -0.2850020000    -1.2498510000 
 O        4.1742670000    -0.3741770000    -1.3217640000 
 H        0.3382410000     0.3015710000     0.8713420000 
 H        0.3533170000    -0.0604840000    -0.9428340000 
 H        2.8275990000     0.1493160000     0.8857170000 
 H        2.3344710000    -0.4240080000    -2.1479850000 
*
