! RI-MP2 RIJK def2-TZVP def2-TZVP/C def2-TZVP/JK TIGHTSCF
% maxcore 2000
% mp2 density relaxed end
*xyz 0 1
 O        1.0174890000     0.1418980000     0.2351090000 
 C        2.3715700000    -0.1241710000    -0.0816850000 
 C        2.8110570000    -1.3282100000     0.6759850000 
 C        3.4098140000    -2.3760520000     0.1309230000 
 H        0.7867900000     1.0037620000    -0.1185530000 
 H        3.0059200000     0.7284020000     0.2053430000 
 H        2.5082050000    -0.2926190000    -1.1585120000 
 H        2.6217890000    -1.2983930000     1.7464160000 
 H        3.5938460000    -2.4299820000    -0.9377910000 
 H        3.7412180000    -3.2162550000     0.7297560000 
*
