! RI-MP2 RIJK def2-TZVP def2-TZVP/C def2-TZVP/JK TIGHTSCF
% maxcore 2000
% mp2 density relaxed end
*xyz 0 1
 C        0.8651110000     0.0109210000     0.0687240000 
 C        2.3570680000    -0.0283160000     0.0522500000 
 C        3.0742020000    -1.0654530000    -0.3831720000 
 C        4.4948690000    -1.0665930000    -0.3836510000 
 N        5.6472570000    -1.0903750000    -0.3936360000 
 H        0.4951600000     0.9555730000     0.4653080000 
 H        0.4570900000    -0.7950700000     0.6846250000 
 H        0.4570880000    -0.1138840000    -0.9379430000 
 H        2.8923600000     0.8430930000     0.4180930000 
 H        2.5972850000    -1.9654270000    -0.7610080000 
*
