! RI-MP2 RIJK def2-TZVP def2-TZVP/C def2-TZVP/JK TIGHTSCF
% maxcore 2000
% mp2 density relaxed end
*xyz 0 1
 C        0.8429070000     0.0257600000     0.2105240000 
 C        2.2571000000     0.0286660000    -0.2814050000 
 O        2.5316970000    -1.1138930000    -1.0832150000 
 C        3.3843720000    -0.6450310000    -2.0540850000 
 C        3.3770390000     0.6790040000    -2.0674060000 
 O        2.5190990000     1.1578220000    -1.1060680000 
 H        0.6691990000    -0.8556740000     0.8293720000 
 H        0.1545340000     0.0135680000    -0.6352850000 
 H        0.6594120000     0.9173250000     0.8117850000 
 H        2.9853830000     0.0410570000     0.5496110000 
 H        3.8835840000    -1.3669910000    -2.6772240000 
 H        3.8682830000     1.3937780000    -2.7049950000 
*
