! RI-MP2 RIJK def2-TZVP def2-TZVP/C def2-TZVP/JK TIGHTSCF
% maxcore 2000
% mp2 density relaxed end
*xyz 0 1
 C        2.1953710000    -0.5536320000     0.4879200000 
 C        3.3499310000    -0.1130760000    -0.0032680000 
 C        3.5427840000     0.9245130000    -1.0193020000 
 C        2.5812550000     1.6180940000    -1.6360440000 
 C        4.9574100000     1.2204740000    -1.3868160000 
 O        5.3050110000     2.0365090000    -2.1978550000 
 H        2.1728650000    -1.3305190000     1.2419130000 
 H        1.2372060000    -0.1629620000     0.1627150000 
 H        4.2689370000    -0.5569810000     0.3754930000 
 H        1.5287720000     1.4665400000    -1.4288770000 
 H        2.8552010000     2.3633580000    -2.3736230000 
 H        5.7124560000     0.6129840000    -0.8420550000 
*
