! RI-MP2 RIJK def2-TZVP def2-TZVP/C def2-TZVP/JK TIGHTSCF
% maxcore 2000
% mp2 density relaxed end
*xyz 0 1
 C        0.9516010000    -0.0010510000     0.0726190000 
 C        2.2700020000     0.1563750000     0.0246490000 
 C        3.0252140000     1.0406570000     0.9305420000 
 O        4.2285450000     1.1568730000     0.8541440000 
 C        2.2722020000     1.7796920000     1.9326650000 
 C        1.6751380000     2.4014700000     2.7693490000 
 H        0.4369050000    -0.6625740000    -0.6140450000 
 H        0.3500640000     0.5297500000     0.8029080000 
 H        2.8883340000    -0.3657160000    -0.6983780000 
 H        1.1615860000     2.9602240000     3.5171470000 
*
