! RI-MP2 RIJK def2-TZVP def2-TZVP/C def2-TZVP/JK TIGHTSCF
% maxcore 2000
% mp2 density relaxed end
*xyz 0 1
 C        1.2906550000    -0.5976890000    -0.1097930000 
 C        2.7303240000    -0.2073970000    -0.3274560000 
 O        3.2048980000     0.4433040000     0.8253100000 
 C        4.5423020000     0.8579030000     0.7014050000 
 C        4.9412770000     1.6069270000     1.9248890000 
 C        6.0435500000     1.3685660000     2.6188880000 
 H        0.8980340000    -1.1075180000    -0.9923080000 
 H        0.6778480000     0.2854000000     0.0807750000 
 H        1.2000230000    -1.2688940000     0.7462770000 
 H        2.8236110000     0.4598780000    -1.1989820000 
 H        3.3445260000    -1.0974180000    -0.5358930000 
 H        4.6452470000     1.5106160000    -0.1828430000 
 H        5.2079100000    -0.0049780000     0.5465500000 
 H        4.2655330000     2.4042550000     2.2246490000 
 H        6.7245720000     0.5692320000     2.3428230000 
 H        6.3094890000     1.9637020000     3.4846190000 
*
