! RI-MP2 RIJK def2-TZVP def2-TZVP/C def2-TZVP/JK TIGHTSCF
% maxcore 2000
% mp2 density relaxed end
*xyz 0 1
 O        1.6483490000    -0.9655270000    -0.5160020000 
 C        2.4028900000     0.1357180000    -0.1426450000 
 C        2.0834330000     0.5652380000     1.2662020000 
 O        1.2578210000    -0.0311660000     1.9189260000 
 C        2.8073140000     1.7058610000     1.7749100000 
 C        3.4294050000     2.6576160000     2.1622250000 
 H        1.0921750000    -1.1797090000     0.2488780000 
 H        2.2232560000     0.9949440000    -0.8060240000 
 H        3.4813940000    -0.0761870000    -0.1939130000 
 H        3.9722720000     3.5007230000     2.5231530000 
*
