! RI-MP2 RIJK def2-TZVP def2-TZVP/C def2-TZVP/JK TIGHTSCF
% maxcore 2000
% mp2 density relaxed end
*xyz 0 1
 C        1.0700810000    -0.4620620000    -0.2121920000 
 O        2.4537870000    -0.2318510000    -0.0017670000 
 C        3.1238950000     0.2601520000    -1.0391770000 
 C        4.4350300000     0.5225020000    -0.9719950000 
 C        5.1265510000     1.0453030000    -2.0877300000 
 N        5.7067450000     1.4723310000    -2.9890220000 
 H        0.6772080000    -0.8587300000     0.7213580000 
 H        0.9139970000    -1.1924670000    -1.0110020000 
 H        0.5530320000     0.4701250000    -0.4564250000 
 H        2.5577090000     0.4416420000    -1.9510220000 
 H        4.9917650000     0.3390550000    -0.0606260000 
*
