! RI-MP2 RIJK def2-TZVP def2-TZVP/C def2-TZVP/JK TIGHTSCF
% maxcore 2000
% mp2 density relaxed end
*xyz 0 1
 C        0.8900520000    -0.0510980000     0.0861600000 
 C        2.3838060000    -0.0459890000     0.0904800000 
 C        3.1394510000    -0.6362040000    -0.8431300000 
 C        4.5483870000    -0.6297530000    -0.8364640000 
 C        5.7607380000    -0.6437370000    -0.8616050000 
 C        7.1202510000    -0.6535140000    -0.8802120000 
 C        8.3270860000    -0.6623260000    -0.8971700000 
 H        0.4872040000     0.4902710000     0.9417510000 
 H        0.4959540000    -1.0707680000     0.1216480000 
 H        0.4935860000     0.4157290000    -0.8200350000 
 H        2.8877630000     0.4694460000     0.9028720000 
 H        2.6642940000    -1.1611320000    -1.6706220000 
 H        9.3909880000    -0.6724960000    -0.9105420000 
*
