! RI-MP2 RIJK def2-TZVP def2-TZVP/C def2-TZVP/JK TIGHTSCF
% maxcore 2000
% mp2 density relaxed end
*xyz 0 1
 C        1.4510260000    -0.2140090000    -0.5044380000 
 N        2.6936080000    -0.0806020000    -0.2996630000 
 N        2.9617940000     0.8876990000     0.6689850000 
 C        4.2047820000     1.0339440000     0.8612790000 
 C        4.6781180000     2.0083590000     1.8954620000 
 C        5.6971610000     2.9104030000     1.3782450000 
 N        6.5043040000     3.6146920000     0.9627980000 
 H        1.1351940000    -0.9435000000    -1.2438720000 
 H        0.7063400000     0.3755040000     0.0328330000 
 H        4.9411560000     0.4545120000     0.3003730000 
 H        5.1114190000     1.4608840000     2.7412950000 
 H        3.8278780000     2.5823030000     2.2693840000 
*
