! RI-MP2 RIJK def2-TZVP def2-TZVP/C def2-TZVP/JK TIGHTSCF
% maxcore 2000
% mp2 density relaxed end
*xyz 0 1
 N        0.9813880000     0.2205660000     0.5524120000 
 C        2.3304290000     0.2532300000     0.2837800000 
 N        2.9919190000     1.2542480000    -0.1487460000 
 C        3.0238880000    -1.0112130000     0.5967960000 
 C        4.3287610000    -1.1778520000     0.3661460000 
 C        5.0368610000    -2.3670550000     0.6449250000 
 C        5.6718250000    -3.3651550000     0.8689100000 
 H        0.4131110000     0.9653240000     0.1868960000 
 H        0.5277050000    -0.6745770000     0.6114450000 
 H        2.3939000000     2.0573750000    -0.3297280000 
 H        2.4415090000    -1.8192570000     1.0284030000 
 H        4.8787450000    -0.3426870000    -0.0612930000 
 H        6.2282710000    -4.2497470000     1.0701520000 
*
