! RI-MP2 RIJK def2-TZVP def2-TZVP/C def2-TZVP/JK TIGHTSCF
% maxcore 2000
% mp2 density relaxed end
*xyz 0 1
 C       -1.1837910000    -0.7046600000    -0.4973710000 
 O       -1.1811350000     0.7297940000    -0.4411360000 
 C       -0.0292060000     1.0778750000     0.3255350000 
 C        1.2010840000     0.7095230000    -0.4901780000 
 O        1.1983450000    -0.7253090000    -0.4445970000 
 C        0.0451690000    -1.0790640000     0.3175910000 
 C        0.0071040000    -0.0045910000     1.3984880000 
 H       -1.0916930000    -1.0408030000    -1.5336130000 
 H       -2.1161530000    -1.0908020000    -0.0701700000 
 H       -0.1065600000     2.1188830000     0.6335410000 
 H        2.1327450000     1.0924780000    -0.0586040000 
 H        1.1106720000     1.0533480000    -1.5240450000 
 H        0.1220270000    -2.1223290000     0.6179870000 
 H        0.9058710000    -0.0002780000     2.0149530000 
 H       -0.8926680000    -0.0134750000     2.0134390000 
*
