! RI-MP2 RIJK def2-TZVP def2-TZVP/C def2-TZVP/JK TIGHTSCF
% maxcore 2000
% mp2 density relaxed end
*xyz 0 1
 O        1.6912960000     0.9292000000     0.5571270000 
 C        2.3250540000     0.1123860000    -0.0701640000 
 C        2.4139980000     0.2071180000    -1.5235320000 
 C        2.4777350000     0.2988850000    -2.7199420000 
 C        3.0364020000    -1.0107380000     0.5696600000 
 C        3.1351800000    -2.3476430000    -0.1294020000 
 C        4.3461910000    -1.5067390000    -0.0002340000 
 H        2.5221530000     0.3981200000    -3.7798380000 
 H        2.9230530000    -1.0127450000     1.6463980000 
 H        2.6762880000    -2.4256260000    -1.1070250000 
 H        3.0324640000    -3.2224270000     0.4994380000 
 H        4.7146640000    -1.0111990000    -0.8896350000 
 H        5.1042340000    -1.7832010000     0.7210300000 
*
