! RI-MP2 RIJK def2-TZVP def2-TZVP/C def2-TZVP/JK TIGHTSCF
% maxcore 2000
% mp2 density relaxed end
*xyz 0 1
 O        0.9240750000    -0.3048210000     0.4678170000 
 C        2.0360040000    -0.0356720000     0.0926840000 
 C        2.7676750000     1.1345950000     0.5016580000 
 C        3.4251860000     2.0953980000     0.8089480000 
 C        4.1849100000     3.2701650000     1.2067160000 
 C        5.5082500000     3.3516860000     0.6011420000 
 C        6.5983480000     3.4311320000     0.1105240000 
 H        2.5825930000    -0.6912420000    -0.6117590000 
 H        4.2779420000     3.2754620000     2.2995480000 
 H        3.6062090000     4.1662320000     0.9514740000 
 H        7.5663990000     3.4986760000    -0.3271520000 
*
