! RI-MP2 RIJK def2-TZVP def2-TZVP/C def2-TZVP/JK TIGHTSCF
% maxcore 2000
% mp2 density relaxed end
*xyz 0 1
 O        1.4371250000     0.5801600000    -0.6765390000 
 C        2.3485090000    -0.2137490000     0.0565980000 
 C        2.8223610000     0.5222110000     1.2159610000 
 C        3.2361520000     1.1227700000     2.1707850000 
 C        3.6997810000     1.8240130000     3.3521120000 
 C        3.0227820000     1.3364080000     4.6192230000 
 O        3.5896850000     1.2145660000     5.6657580000 
 H        1.1466090000     0.0680670000    -1.4357110000 
 H        3.2163370000    -0.4938020000    -0.5571850000 
 H        1.8775510000    -1.1455540000     0.4002280000 
 H        3.4608350000     2.8927970000     3.2594110000 
 H        4.7820780000     1.7467540000     3.4819300000 
 H        1.9422040000     1.1081600000     4.5113290000 
*
