! RI-MP2 RIJK def2-TZVP def2-TZVP/C def2-TZVP/JK TIGHTSCF
% maxcore 2000
% mp2 density relaxed end
*xyz 0 1
 C        3.2835190000    -1.2744890000     0.1171450000 
 O        2.5877950000    -0.0370160000     0.0592840000 
 C        3.0493210000     0.8832740000    -0.7632230000 
 N        2.5456990000     2.0537820000    -0.9406070000 
 C        3.3810850000     2.6217570000    -1.8867950000 
 C        4.3477670000     1.7518410000    -2.2269570000 
 O        4.1411360000     0.6049890000    -1.4954450000 
 H        2.7445800000    -1.8771570000     0.8441750000 
 H        4.3149050000    -1.1294740000     0.4455450000 
 H        3.2795900000    -1.7723570000    -0.8548350000 
 H        3.2205210000     3.6229130000    -2.2537210000 
 H        5.1883820000     1.7537280000    -2.8975560000 
*
