! RI-MP2 RIJK def2-TZVP def2-TZVP/C def2-TZVP/JK TIGHTSCF
% maxcore 2000
% mp2 density relaxed end
*xyz 0 1
 N        0.7455350000    -0.2530110000    -0.1941710000 
 C        2.0492300000     0.0383580000    -0.0934710000 
 C        3.0531400000    -0.8293860000     0.1734650000 
 C        4.4038670000    -0.3425210000     0.2456750000 
 O        4.7814830000     0.8082320000     0.0898930000 
 C        5.4822390000    -1.3805590000     0.5508110000 
 O        5.2728810000    -2.5476880000     0.7290670000 
 H        0.0708750000     0.4597600000    -0.3959640000 
 H        0.4125210000    -1.1924900000    -0.0697940000 
 H        2.3076040000     1.0832800000    -0.2447480000 
 H        2.8834270000    -1.8870930000     0.3372320000 
 H        6.4983890000    -0.9372610000     0.5918970000 
*
