! RI-MP2 RIJK def2-TZVP def2-TZVP/C def2-TZVP/JK TIGHTSCF
% maxcore 2000
% mp2 density relaxed end
*xyz 0 1
 O        0.8301090000     0.0410050000    -0.0524360000 
 C        2.0339170000     0.0360880000    -0.0394100000 
 C        2.7803010000     1.3548760000    -0.0282010000 
 N        4.2094350000     1.1905110000    -0.0128740000 
 C        4.8132490000    -0.0282670000    -0.0089070000 
 N        4.2700350000    -1.1744030000    -0.0174550000 
 C        2.8302810000    -1.2467350000    -0.0336260000 
 H        2.4256670000     1.9086500000     0.8491850000 
 H        2.4450040000     1.9126570000    -0.9106380000 
 H        4.7898250000     2.0094560000    -0.0046180000 
 H        5.9022900000     0.0293300000     0.0033160000 
 H        2.4801930000    -1.8274340000     0.8289800000 
 H        2.4994950000    -1.8232440000    -0.9066050000 
*
