! RI-MP2 RIJK def2-TZVP def2-TZVP/C def2-TZVP/JK TIGHTSCF
% maxcore 2000
% mp2 density relaxed end
*xyz 0 1
 O        2.6268170000     1.1869890000    -0.4374590000 
 C        2.4590550000     0.0483680000    -0.1106090000 
 C        3.0908700000    -0.5846160000     1.1129910000 
 C        2.1332410000    -1.3112530000     1.9240790000 
 C        1.3178500000    -1.8974480000     2.5782440000 
 C        1.6249240000    -0.8448150000    -0.9328670000 
 N        1.0023310000    -1.5412040000    -1.6032790000 
 H        3.5764910000     0.2158420000     1.6754530000 
 H        3.8737490000    -1.2677200000     0.7572240000 
 H        0.5969720000    -2.4227520000     3.1599030000 
*
